p wcnf 182 91 92 
1 130 -120 0 
1 126 162 0 
1 -174 27 0 
1 -12 8 0 
1 -92 -152 0 
1 67 -11 0 
1 97 -176 0 
1 -56 -100 0 
1 131 -160 0 
1 -148 130 0 
1 145 13 0 
1 -71 111 0 
1 -145 -72 0 
1 59 157 0 
1 4 -14 0 
1 -49 81 0 
1 163 -92 0 
1 -30 -19 0 
1 50 102 0 
1 -24 22 0 
1 145 161 0 
1 -137 -142 0 
1 -35 -18 0 
1 50 173 0 
1 -43 57 0 
1 42 -22 0 
1 -96 146 0 
1 148 135 0 
1 -161 -95 0 
1 -2 116 0 
1 82 96 0 
1 108 74 0 
1 141 -177 0 
1 37 -112 0 
1 -32 -77 0 
1 -124 -32 0 
1 -52 -43 0 
1 7 21 0 
1 164 -44 0 
1 -70 168 0 
1 58 -39 0 
1 2 -139 0 
1 121 110 0 
1 126 -51 0 
1 146 -148 0 
1 -170 3 0 
1 86 -175 0 
1 166 46 0 
1 57 163 0 
1 77 79 0 
1 23 161 0 
1 -154 16 0 
1 105 -177 0 
1 -79 132 0 
1 -135 -96 0 
1 28 15 0 
1 -4 48 0 
1 55 -34 0 
1 148 180 0 
1 -122 149 0 
1 -177 54 0 
1 -27 -159 0 
1 -116 -65 0 
1 -122 -110 0 
1 120 -12 0 
1 -157 79 0 
1 109 -60 0 
1 44 62 0 
1 43 57 0 
1 127 151 0 
1 105 -99 0 
1 -146 -85 0 
1 -169 -133 0 
1 -77 -112 0 
1 138 62 0 
1 18 -163 0 
1 149 -135 0 
1 55 -70 0 
1 -13 2 0 
1 52 114 0 
1 -168 -8 0 
1 26 -132 0 
1 -180 -151 0 
1 -125 38 0 
1 116 -1 0 
1 -19 -3 0 
1 83 13 0 
1 -19 4 0 
1 -58 158 0 
1 -174 30 0 
1 -154 149 0 
